 &input
   fildyn='final_dyn', flfrc='final.fc' !,zasr='simple',
 /
